<number of tasks>
50

<cycle time>
1000

<order strength>
0.198


<task times>
1 313
2 103
3 128
4 159
5 113
6 153
7 311
8 179
9 73
10 97
11 114
12 70
13 92
14 189
15 168
16 119
17 182
18 181
19 166
20 150
21 303
22 166
23 79
24 161
25 119
26 128
27 303
28 83
29 55
30 126
31 55
32 138
33 76
34 102
35 51
36 147
37 90
38 52
39 202
40 242
41 199
42 177
43 48
44 54
45 146
46 90
47 94
48 260
49 61
50 21

<precedence relations>
1,6
2,5
2,7
2,8
2,10
3,36
4,7
4,9
4,11
4,45
5,14
6,12
7,13
9,35
10,15
11,15
11,16
11,17
11,38
12,19
13,20
14,22
15,18
15,21
15,23
15,24
16,24
16,25
17,48
18,26
19,27
20,29
21,28
22,31
23,30
25,32
26,35
27,33
28,35
29,34
30,36
31,37
31,38
32,39
33,40
34,41
35,42
35,44
36,43
37,45
37,46
39,44
40,47
41,48
43,49
44,50

<end>
